SECTION Graph
Nodes 8
Edges 13
E 1 2 5
E 2 3 13
E 3 4 13
E 4 5 5
E 5 8 13
E 7 8 20
E 6 7 10
E 2 6 13
E 2 5 15
E 5 7 10
E 2 7 13
E 1 3 10
E 3 5 15
END

SECTION Terminals
Terminals 25
T 1
T 3
T 6
T 7
END

SECTION Tree Decomposition
s td 6 3 8
b 1 1 2 3
b 2 2 3 5
b 3 3 4 5
b 4 2 5 7
b 5 2 6 7
b 6 5 7 8
1 2
2 3
3 4
4 5
4 6
END

EOF
